outputs/case_269.model.txt
internal_control_system_established = True
internal_control_system_executed = True
violation_47_reporting = False
violation_33_limit = False
violation_21_3 = False
violate_article_33_limit = False
violate_article_31_1_limit = False
violate_article_41_limit = False
violate_article_16_1 = False
violate_article_28_1 = False
capital_replenished_within_deadline = True
financial_report_reported_immediately = True
violation_16_1 = False
violation_43_internal_control = False
violation_41_limit = False
violation_30_1_limit = False
violation_28_1 = False
violation_19 = False
internal_control_executed = True
violation_31_1_limit = False
violate_article_30_1_limit = False
violate_article_21_3 = False
violate_article_19 = False
penalty = False
internal_control_compliance = True
internal_control_established = True
business_restriction_or_suspension_executed = True